NAME : MM39_depots
COMMENT : Instance 39 in MD algorithm. Coordinates of depots and vhcl speeds given.
TYPE : TSP
DIMENSION : 5
EDGE_WEIGHT_TYPE : ATT
NODE_COORD_SECTION
251 21.2953 21.7754 1
252 49.7323 68.274 1
253 69.4499 49.0436 1
254 70.2105 53.1982 1
255 54.4113 71.3545 1
EOF
